[5, 21, 22, 26, 32]
[[0,19,38],[0,9,58,55,13,76,91,7,15,10,1,39,100,94,53,81,95,54], [0, 26, 62,  2, 66, 77, 93, 11, 90, 92, 65, 30,  5, 34, 80, 20, 52], [  0, 41, 67, 28, 22,  8, 86, 61, 89, 50, 88, 49, 60, 46, 69, 78, 36, 64, 27, 26], [  0,  54, 31, 40, 35, 43, 87, 25, 14, 37, 24, 23, 63, 16, 74, 98, 17, 83, 21, 45, 79, 48, 44, 29, 59, 4, 51, 99, 75, 33, 85, 12, 68, 73, 3, 96, 71, 18, 70, 82, 57, 56, 32, 6, 47, 84, 72, 97, 42, 50]]